(set-logic QF_S)
(set-option :strings-exp true)
(set-option :produce-models true)
(declare-fun sigmaStar_0 () String)
(declare-fun sigmaStar_1 () String)
(declare-fun literal_6 () String)
(assert (= literal_6 "\x74\x65\x61\x63\x68\x65\x72\x73\x3a\x20\x75\x73\x65\x72\x5f\x74\x65\x61\x63\x68\x65\x72\x73"))
(assert (str.in.re literal_6 (re.++ (re.* re.allchar) (re.++ (str.to.re "\x5c\x3c\x53\x43\x52\x49\x50\x54") (re.* re.allchar)))))
(check-sat)
(get-model)
